data;

set A := 940446 28506 216637 401709 969603 687356 69287 278423 790508 91665 532472 682924 769363 704227 990205 92116 695467 602377 432928 877090 572453 699936 736933 268944 385639 388946 869032 133061;
param T := 7000000;

end;
